63 85 84 56 66 
59 75 97 58 77 
95 62 67 71 94 
64 51 76 89 91 
72 39 36 40 38 41 54 96 
90 
82 12 11 9 13 17 
31 29 27 26 32 93 
61 81 68 
42 44 43 37 35 
14 47 16 15 10 55 
5 45 2 7 6 8 3 1 70 
65 52 57 22 49 20 24 
69 98 73 79 46 4 100 
88 53 78 60 
99 86 87 74 
83 23 21 19 18 48 25 
92 33 28 30 34 50 80 
